pure_adt/prod_prop_01.smt2
(set-logic HORN)
(declare-datatypes ((Nat_587 0)) (((Z_2071 ) (S_476 (projS_194 Nat_587)))))
(declare-fun diseqNat_587 (Nat_587 Nat_587) Bool)
(declare-fun projS_195 (Nat_587 Nat_587) Bool)
(declare-fun isZ_443 (Nat_587) Bool)
(declare-fun isS_443 (Nat_587) Bool)
(assert (forall ((x_55570 Nat_587))
	(projS_195 x_55570 (S_476 x_55570))))
(assert (isZ_443 Z_2071))
(assert (forall ((x_55572 Nat_587))
	(isS_443 (S_476 x_55572))))
(assert (forall ((x_55573 Nat_587))
	(diseqNat_587 Z_2071 (S_476 x_55573))))
(assert (forall ((x_55574 Nat_587))
	(diseqNat_587 (S_476 x_55574) Z_2071)))
(assert (forall ((x_55575 Nat_587) (x_55576 Nat_587))
	(=> (diseqNat_587 x_55575 x_55576)
	    (diseqNat_587 (S_476 x_55575) (S_476 x_55576)))))
(declare-fun double_0 (Nat_587 Nat_587) Bool)
(assert (forall ((x_55561 Nat_587) (y_2307 Nat_587))
	(=> (double_0 x_55561 y_2307)
	    (double_0 (S_476 (S_476 x_55561)) (S_476 y_2307)))))
(assert (double_0 Z_2071 Z_2071))
(declare-fun x_55557 (Nat_587 Nat_587 Nat_587) Bool)
(assert (forall ((x_55564 Nat_587) (z_2072 Nat_587) (y_2308 Nat_587))
	(=> (x_55557 x_55564 z_2072 y_2308)
	    (x_55557 (S_476 x_55564) (S_476 z_2072) y_2308))))
(assert (forall ((x_55565 Nat_587))
	(x_55557 x_55565 Z_2071 x_55565)))
(assert (forall ((x_55566 Nat_587) (x_55567 Nat_587) (x_55559 Nat_587))
	(=>	(and true
			(diseqNat_587 x_55566 x_55567)
			(double_0 x_55566 x_55559)
			(x_55557 x_55567 x_55559 x_55559))
		false)))
(check-sat)
